Optimal - objective value -156.28017900
      0 squad[318,24]                                    1                       0
      1 squad[318,25]                                    1                       0
      2 squad[318,26]                                    1                       0
      3 squad[283,24]                                    1                       0
      4 squad[283,25]                                    1                       0
      5 squad[283,26]                                    1                       0
      6 squad[13,24]                                     1                       0
      7 squad[13,25]                                     1                       0
      8 squad[13,26]                                     1                       0
     12 squad[7,24]                                      1                       0
     13 squad[7,25]                                      1                       0
     14 squad[7,26]                                      1                       0
     15 squad[133,24]                                    1                       0
     16 squad[133,25]                                    1                       0
     17 squad[133,26]                                    1                       0
     18 squad[285,24]                                    1                       0
     19 squad[285,25]                                    1                       0
     20 squad[285,26]                                    1                       0
     30 squad[313,24]                                    1                       0
     31 squad[313,25]                                    1                       0
     32 squad[313,26]                                    1                       0
     33 squad[281,24]                                    1                       0
     34 squad[281,25]                                    1                       0
     35 squad[281,26]                                    1                       0
     36 squad[124,24]                                    1                       0
     38 squad[124,26]                                    1                       0
     39 squad[80,24]                                     1                       0
     40 squad[80,25]                                     1                       0
     41 squad[80,26]                                     1                       0
    111 squad[394,24]                                    1                       0
    112 squad[394,25]                                    1                       0
    113 squad[394,26]                                    1                       0
    120 squad[586,24]                                    1                       0
    121 squad[586,25]                                    1                       0
    122 squad[586,26]                                    1                       0
    138 squad[480,24]                                    1                       0
    139 squad[480,25]                                    1                       0
    140 squad[480,26]                                    1                       0
    177 squad[484,24]                                    1                       0
    178 squad[484,25]                                    1                       0
    179 squad[484,26]                                    1                       0
    186 squad[199,24]                                    1                       0
    187 squad[199,25]                                    1                       0
    188 squad[199,26]                                    1                       0
    190 squad[186,25]                                    1                       0
   2220 lineup[318,25]                                   1                  -7.026
   2221 lineup[318,26]                                   1                -5.46252
   2222 lineup[283,25]                                   1                  -11.94
   2223 lineup[283,26]                                   1                -4.66284
   2224 lineup[13,25]                                    1                 -10.305
   2225 lineup[13,26]                                    1                -4.46628
   2228 lineup[7,25]                                     1                  -9.543
   2229 lineup[7,26]                                     1                -4.10172
   2231 lineup[133,26]                                   1                -3.96984
   2232 lineup[285,25]                                   1                  -9.865
   2233 lineup[285,26]                                   1                 -3.2298
   2240 lineup[313,25]                                   1                  -8.321
   2241 lineup[313,26]                                   1                -3.82032
   2242 lineup[281,25]                                   1                  -8.776
   2245 lineup[124,26]                                   1                 -4.0572
   2247 lineup[80,26]                                    1                 -4.0404
   2295 lineup[394,26]                                   1                -2.91648
   2301 lineup[586,26]                                   1                 -3.5196
   2312 lineup[480,25]                                   1                  -6.602
   2338 lineup[484,25]                                   1                  -5.275
   2344 lineup[199,25]                                   1                  -5.299
   2346 lineup[186,25]                                   1                  -5.654
   3109 captain[318,26]                                  1                -5.46252
   3110 captain[283,25]                                  1                  -11.94
   3999 vicecap[283,26]                                  1               -0.466284
   4000 vicecap[13,25]                                   1                 -1.0305
   4924 bench[133,25,0]                                  1                 -0.1161
   4976 bench[281,26,0]                                  1               -0.090619
   4991 bench[80,25,3]                                   1                       0
   5181 bench[394,25,1]                                  1                -0.70329
   5206 bench[586,25,2]                                  1                       0
   5258 bench[480,26,2]                                  1               -0.168134
   5363 bench[484,26,3]                                  1               -0.007376
   5385 bench[199,26,1]                                  1               -0.608756
   8461 transfer_in[124,26]                              1                  0.9072
   8562 transfer_in[186,25]                              1                  1.9872
   9328 tr_out_first[124,25]                             1                 -1.9504
   9463 tr_out_reg[186,26]                               1                 -0.9072
  10224 itb[24]                                        0.3                       0
  10225 itb[25]                                        0.2           2.7755576e-17
  10226 itb[26]                                        0.2                       0
  10228 ft[25]                                           1                    -1.5
  10229 ft[26]                                           1                   -1.26
